n_machines = 5;
n_resources = 7;
n_jobs = 77;
horizon = 379;
LB = 85;
n_jobs_per_resource = [16, 7, 19, 5, 13, 8, 9];
duration = [4, 7, 6, 4, 3, 6, 2, 1, 9, 5, 5, 4, 8, 2, 6, 6, 2, 8, 3, 8, 8, 8, 3, 4, 4, 6, 1, 5, 5, 9, 3, 1, 7, 1, 3, 3, 3, 4, 8, 3, 8, 7, 4, 6, 6, 8, 7, 5, 2, 9, 3, 9, 6, 4, 8, 7, 8, 3, 7, 3, 2, 7, 7, 3, 6, 3, 4, 8, 2, 8, 6, 3, 2, 2, 3, 2, 3]